language ESSENCE' 1.0

letting fs_Explicit_Explicit_Matrix1D be
        [[[-1, -1; int(1..2)], [-1, -1; int(1..2)]; int(1..2)],
         [[-1, -1; int(1..2)], [-1, -1; int(1..2)]; int(1..2)],
         [[-1, -1; int(1..2)], [-1, -1; int(1..2)]; int(1..2)]; int(1..3)]

